44 44
12 38
13 43
6 13
8 26
20 10
14 22
5 20
7 12
22 17
17 41
1 19
22 33
4 40
8 24
21 1
17 31
2 2
6 8
18 37
19 44
16 30
11 11
3 6
3 18
10 7
15 5
13 21
15 23
11 4
10 29
2 15
20 16
7 39
9 34
4 14
9 42
21 35
16 36
18 25
19 9
12 3
14 27
1 28
5 32
